NAME          COPTPROB
OBJSENSE
  MIN
ROWS
 N  __OBJ___
 L  C11     
 L  C29     
 L  C59     
 L  C121    
 L  C148    
 L  C150    
 L  C163    
 L  C167    
 L  C188    
 L  C191    
 L  C214    
 L  C233    
 L  C241    
 L  C251    
 L  C271    
 L  C273    
 L  C285    
COLUMNS
    MARKER    'MARKER'                 'INTORG'
    x7        __OBJ___  -1
    x7        C59       1
    x7        C150      1
    x17       __OBJ___  -1
    x17       C148      1
    x17       C241      1
    x17       C251      1
    x24       __OBJ___  -1
    x24       C29       1
    x24       C273      1
    x29       __OBJ___  -1
    x29       C167      1
    x29       C191      1
    x39       __OBJ___  -1
    x39       C29       1
    x39       C188      1
    x52       __OBJ___  -1
    x52       C11       1
    x52       C188      1
    x52       C233      1
    x59       __OBJ___  -1
    x59       C167      1
    x59       C214      1
    x59       C273      1
    x59       C285      1
    x71       __OBJ___  -1
    x71       C150      1
    x71       C241      1
    x71       C271      1
    x90       __OBJ___  -1
    x90       C214      1
    x90       C271      1
    x91       __OBJ___  -1
    x91       C121      1
    x91       C251      1
    x93       __OBJ___  -1
    x93       C59       1
    x93       C163      1
    x93       C233      1
    x98       __OBJ___  -1
    x98       C121      1
    x98       C285      1
    x105      __OBJ___  -1
    x105      C163      1
    x105      C191      1
    x144      __OBJ___  -1
    x144      C11       1
    x144      C148      1
    MARKER    'MARKER'                 'INTEND'
RHS
    RHS       __OBJ___  75
    RHS       C11       1
    RHS       C29       1
    RHS       C59       1
    RHS       C121      1
    RHS       C148      1
    RHS       C150      1
    RHS       C163      1
    RHS       C167      1
    RHS       C188      1
    RHS       C191      1
    RHS       C214      1
    RHS       C233      1
    RHS       C241      1
    RHS       C251      1
    RHS       C271      1
    RHS       C273      1
    RHS       C285      1
BOUNDS
 UP BOUND     x7        1
 UP BOUND     x17       1
 UP BOUND     x24       1
 UP BOUND     x29       1
 UP BOUND     x39       1
 UP BOUND     x52       1
 UP BOUND     x59       1
 UP BOUND     x71       1
 UP BOUND     x90       1
 UP BOUND     x91       1
 UP BOUND     x93       1
 UP BOUND     x98       1
 UP BOUND     x105      1
 UP BOUND     x144      1
ENDATA
